
******************************************************************************
This program contains Ipopt, a library for large-scale nonlinear optimization.
 Ipopt is released as open source code under the Eclipse Public License (EPL).
         For more information visit http://projects.coin-or.org/Ipopt

This version of Ipopt was compiled from source code available at
    https://github.com/IDAES/Ipopt as part of the Institute for the Design of
    Advanced Energy Systems Process Systems Engineering Framework (IDAES PSE
    Framework) Copyright (c) 2018-2019. See https://github.com/IDAES/idaes-pse.

This version of Ipopt was compiled using HSL, a collection of Fortran codes
    for large-scale scientific computation.  All technical papers, sales and
    publicity material resulting from use of the HSL codes within IPOPT must
    contain the following acknowledgement:
        HSL, a collection of Fortran codes for large-scale scientific
        computation. See http://www.hsl.rl.ac.uk.
******************************************************************************

This is Ipopt version 3.13.2, running with linear solver ma27.

Number of nonzeros in equality constraint Jacobian...:      958
Number of nonzeros in inequality constraint Jacobian.:        0
Number of nonzeros in Lagrangian Hessian.............:      832

Total number of variables............................:      416
                     variables with only lower bounds:      128
                variables with lower and upper bounds:      224
                     variables with only upper bounds:        0
Total number of equality constraints.................:      415
Total number of inequality constraints...............:        0
        inequality constraints with only lower bounds:        0
   inequality constraints with lower and upper bounds:        0
        inequality constraints with only upper bounds:        0

iter    objective    inf_pr   inf_du lg(mu)  ||d||  lg(rg) alpha_du alpha_pr  ls
   0  0.0000000e+00 4.99e-01 8.88e-16  -1.0 0.00e+00    -  0.00e+00 0.00e+00   0
   1  1.7361505e-02 4.54e-01 5.58e+03  -1.0 1.09e+05    -  2.36e-01 8.48e-02h  2
   2  7.2221091e-02 4.08e-01 4.84e+03  -1.0 9.97e+04    -  6.44e-01 9.57e-02h  1
   3  7.8759894e-02 4.04e-01 4.79e+03  -1.0 1.40e+05    -  8.30e-01 9.23e-03h  1
   4  6.7776602e+00 1.83e-02 7.67e+03  -1.0 1.48e+05    -  7.78e-01 9.90e-01h  1
   5  8.0859927e+00 5.43e-04 8.52e+02  -1.0 1.56e+04    -  9.72e-01 9.90e-01h  1
   6  8.1151361e+00 7.67e-06 8.61e+00  -1.0 3.85e+02    -  9.90e-01 9.90e-01h  1
   7  8.1164594e+00 7.61e-06 1.20e+07  -1.0 3.30e+03    -  9.90e-01 7.73e-03f  8
   8  8.2749073e+00 3.16e-06 1.53e+05  -1.0 3.06e+03    -  9.93e-01 9.90e-01H  1
   9  8.3058364e+00 1.94e-06 1.23e+07  -1.0 5.94e+02    -  1.00e+00 9.90e-01h  1
iter    objective    inf_pr   inf_du lg(mu)  ||d||  lg(rg) alpha_du alpha_pr  ls
  10  8.3036053e+00 2.77e-08 1.23e+09  -1.0 4.27e+01    -  1.00e+00 9.90e-01h  1
  11  8.3035674e+00 2.80e-10 1.23e+11  -1.0 7.25e-01    -  1.00e+00 9.90e-01h  1
In iteration 11, 32 Slacks too small, adjusting variable bounds
  12  8.3035670e+00 5.94e-12 1.23e+13  -1.0 7.28e-03    -  1.00e+00 9.90e-01h  1
  13  8.3035670e+00 5.70e-12 1.22e+15  -1.0 7.27e-05    -  1.00e+00 1.22e-04h 14
  14  8.3035670e+00 5.70e-12 1.22e+15  -1.0 7.28e-05    -  1.00e+00 1.91e-06h 20
  15  8.3035670e+00 3.91e-11 4.06e-01  -1.0 7.28e-05    -  1.00e+00 1.00e+00s 22
  16  8.1108394e+00 7.61e-05 7.55e-01  -9.0 5.65e+03    -  6.53e-01 6.53e-01s 22
  17  8.1111547e+00 5.54e-08 6.51e-04  -9.0 1.04e+01    -  1.00e+00 1.00e+00s 22
  18  8.1111548e+00 1.71e-11 1.82e-07  -9.0 3.47e-03    -  1.00e+00 1.00e+00s 22

Number of Iterations....: 18

                                   (scaled)                 (unscaled)
Objective...............:   8.1111548336119093e+00    8.1111548336119093e+00
Dual infeasibility......:   1.8216087482869625e-07    1.8216087482869625e-07
Constraint violation....:   1.7060575174809856e-11    1.7060575174809856e-11
Complementarity.........:   9.0983640566247835e-10    9.0983640566247835e-10
Overall NLP error.......:   2.4987435957618784e-09    1.8216087482869625e-07


Number of objective function evaluations             = 91
Number of objective gradient evaluations             = 19
Number of equality constraint evaluations            = 91
Number of inequality constraint evaluations          = 0
Number of equality constraint Jacobian evaluations   = 19
Number of inequality constraint Jacobian evaluations = 0
Number of Lagrangian Hessian evaluations             = 18
Total CPU secs in IPOPT (w/o function evaluations)   =      0.044
Total CPU secs in NLP function evaluations           =      0.819

EXIT: Optimal Solution Found.
